p tw 59 64
1 2
2 13
3 4
4 5
4 48
5 6
6 7
7 8
8 9
9 10
10 11
10 19
11 12
12 14
13 24
14 15
15 16
16 17
16 19
17 18
18 6
19 20
20 21
21 22
21 48
22 23
23 25
24 35
25 26
26 27
27 28
28 29
29 30
30 31
31 32
32 33
33 34
34 36
34 41
35 46
36 37
37 38
38 39
39 40
40 45
41 42
42 43
43 44
44 45
45 47
46 56
46 48
47 54
48 49
49 50
50 51
51 52
52 53
53 54
54 55
56 57
57 58
58 59
59 3
